(set-logic ALL_SUPPORTED)
(set-option :produce-models true)
(declare-fun Containment () (Set (Tuple String String)))
(declare-fun Containment_Prohibition () (Set (Tuple String String)))
(declare-fun Tclosure () (Set (Tuple String String)))
(declare-fun Tclosure_Prohibition () (Set (Tuple String String)))
(declare-fun Associations () (Set (Tuple String String String)))
(declare-fun UA_U_Reachability () (Set (Tuple String String)))
(declare-fun AT_Reachability () (Set (Tuple String String)))

(assert (= Associations (insert(mkTuple "CoPI" "edit" "PDSWhole") 
(singleton (mkTuple "PI" "submit" "PDSWhole")))))

(assert (= Containment (insert (mkTuple "BM" "EditingPolicy") 
(mkTuple "CoPI" "CoPI") 
(mkTuple "PDSWhole" "PDSWhole") 
(mkTuple "Chair" "Chair") 
(mkTuple "PI" "EditingPolicy") 
(mkTuple "SP" "SP") 
(mkTuple "RD" "RD") 
(mkTuple "PI" "PI") 
(mkTuple "BM" "BM") 
(mkTuple "RA" "RA") 
(mkTuple "Vlad" "PI") 
(mkTuple "PDSWhole" "EditingPolicy") 
(mkTuple "Dean" "Dean") 
(mkTuple "Dean" "EditingPolicy") 
(mkTuple "SP" "EditingPolicy") 
(mkTuple "CoPI" "EditingPolicy") 
(mkTuple "Chair" "EditingPolicy") 
(mkTuple "Nazmul" "CoPI") 
(mkTuple "RA" "EditingPolicy") 
(singleton (mkTuple "RD" "EditingPolicy")))))

(assert (= Containment_Prohibition (insert (mkTuple "PDSWhole" "EditingPolicy") 
(mkTuple "BM" "EditingPolicy") 
(mkTuple "Dean" "EditingPolicy") 
(mkTuple "SP" "EditingPolicy") 
(mkTuple "CoPI" "EditingPolicy") 
(mkTuple "PI" "EditingPolicy") 
(mkTuple "Chair" "EditingPolicy") 
(mkTuple "Nazmul" "CoPI") 
(mkTuple "RA" "EditingPolicy") 
(mkTuple "RD" "EditingPolicy") 
(singleton (mkTuple "Vlad" "PI")))))

(assert (= Tclosure (tclosure Containment)))
(assert (= Tclosure_Prohibition (tclosure Containment_Prohibition)))

(declare-fun SetToCheckUA () (Set (Tuple String String)))
(declare-fun SetToCheckAT () (Set (Tuple String String)))

(assert (= SetToCheckUA (insert (mkTuple "CoPI" "CoPI") 
(mkTuple "Chair" "Chair") 
(mkTuple "BM" "BM") 
(mkTuple "Dean" "Dean") 
(mkTuple "RA" "RA") 
(mkTuple "Vlad" "Vlad") 
(mkTuple "RD" "RD") 
(mkTuple "Nazmul" "Nazmul") 
(mkTuple "PI" "PI") 
(mkTuple "SP" "SP") 
(singleton (mkTuple "SP" "SP")))))

(assert (= SetToCheckAT (insert (mkTuple "CoPI" "CoPI") 
(mkTuple "Chair" "Chair") 
(mkTuple "BM" "BM") 
(mkTuple "Dean" "Dean") 
(mkTuple "RA" "RA") 
(mkTuple "Vlad" "Vlad") 
(mkTuple "RD" "RD") 
(mkTuple "Nazmul" "Nazmul") 
(mkTuple "PI" "PI") 
(mkTuple "PDSWhole" "PDSWhole") 
(mkTuple "SP" "SP") 
(singleton (mkTuple "SP" "SP")))))

(assert (= UA_U_Reachability (join SetToCheckUA Tclosure )))
(assert (= AT_Reachability (join SetToCheckAT Tclosure )))
(declare-fun AssociationsForUA () (Set (Tuple String String String)))
(assert (= AssociationsForUA (join UA_U_Reachability Associations) ))
(declare-fun FinalJoin () (Set (Tuple String String String)))
(assert (= FinalJoin (join AssociationsForUA (transpose AT_Reachability)) ))

(declare-fun AssociationsForProhibitions () (Set (Tuple String String String)))

(assert (= AssociationsForProhibitions (insert(mkTuple "edit" "edit" "PDSWhole") 
(singleton (mkTuple "submit" "submit" "PDSWhole")))))


(check-sat)
(get-model)
(get-value (FinalJoin))